(set-info :origin "benchmarks generated by liquid types http://goto.ucsd.edu/~rjhala/liquid/")
(set-logic HORN)
(declare-fun k_12
             (Int
              Int
              Int
              Int
              (Array Int Int)
              (Array Int Int)
              (Array Int Int)
              (Array Int Int))
             Bool)
(declare-fun k_18
             (Int
              Int
              Int
              Int
              Int
              Int
              Int
              Int
              (Array Int Int)
              (Array Int Int)
              (Array Int Int)
              (Array Int Int))
             Bool)
(declare-fun k_13
             (Int
              Int
              Int
              Int
              (Array Int Int)
              (Array Int Int)
              (Array Int Int)
              (Array Int Int))
             Bool)
(assert (forall ((VV Int)
         (__cil_tmp4_allocstr Int)
         (EREAD Int)
         (n_allocstr Int)
         (lqn_0 Int)
         (__cil_tmp5_allocstr Int)
         (tmp_allocstr__SSA__blk_0_1 Int)
         (FINAL0 Int)
         (s_allocstr__SSA__blk_0_1 Int)
         (EWRITE Int)
         (BLOCK_END (Array Int Int))
         (DEREF (Array Int Int))
         (BLOCK_BEGIN (Array Int Int))
         (UNCHECKED (Array Int Int)))
  (let ((a!1 (= FINAL0
                (select DEREF
                        (+ (select BLOCK_BEGIN s_allocstr__SSA__blk_0_1) 0)))))
  (let ((a!2 (and (= n_allocstr n_allocstr)
                  (= VV VV)
                  (= EWRITE EWRITE)
                  (= EREAD EREAD)
                  (= VV s_allocstr__SSA__blk_0_1)
                  (= (+ tmp_allocstr__SSA__blk_0_1 __cil_tmp5_allocstr)
                     (select BLOCK_END tmp_allocstr__SSA__blk_0_1))
                  (> tmp_allocstr__SSA__blk_0_1 0)
                  (= tmp_allocstr__SSA__blk_0_1
                     (select BLOCK_BEGIN tmp_allocstr__SSA__blk_0_1))
                  (= s_allocstr__SSA__blk_0_1 tmp_allocstr__SSA__blk_0_1)
                  (= lqn_0 0)
                  (= __cil_tmp5_allocstr __cil_tmp4_allocstr)
                  (or (and (>= n_allocstr 0)
                           (= __cil_tmp4_allocstr n_allocstr)
                           true)
                      (and (< n_allocstr 0) (> __cil_tmp4_allocstr 0) true)
                      false)
                  a!1
                  (= FINAL0 0)
                  (k_13 EREAD
                        EWRITE
                        n_allocstr
                        n_allocstr
                        BLOCK_END
                        DEREF
                        BLOCK_BEGIN
                        UNCHECKED)
                  true)))
    (=> a!2
        (k_12 EREAD EWRITE VV n_allocstr BLOCK_END DEREF BLOCK_BEGIN UNCHECKED))))))
(assert (forall ((VV Int)
         (__cil_tmp5_allocstr Int)
         (EREAD Int)
         (n_allocstr Int)
         (lqn_0 Int)
         (C16_Ix_0 Int)
         (__cil_tmp4_allocstr Int)
         (tmp_allocstr__SSA__blk_0_1 Int)
         (FINAL0 Int)
         (s_allocstr__SSA__blk_0_1 Int)
         (EWRITE Int)
         (BLOCK_END (Array Int Int))
         (DEREF (Array Int Int))
         (BLOCK_BEGIN (Array Int Int))
         (UNCHECKED (Array Int Int)))
  (let ((a!1 (= FINAL0
                (select DEREF
                        (+ (select BLOCK_BEGIN s_allocstr__SSA__blk_0_1) 0)))))
  (let ((a!2 (and (not (= VV FINAL0))
                  (k_13 EREAD
                        EWRITE
                        n_allocstr
                        n_allocstr
                        BLOCK_END
                        DEREF
                        BLOCK_BEGIN
                        UNCHECKED)
                  false
                  (= FINAL0 0)
                  a!1
                  (or (and (>= n_allocstr 0)
                           (= __cil_tmp4_allocstr n_allocstr)
                           true)
                      (and (< n_allocstr 0) (> __cil_tmp4_allocstr 0) true)
                      false)
                  (= __cil_tmp5_allocstr __cil_tmp4_allocstr)
                  (= lqn_0 0)
                  (= s_allocstr__SSA__blk_0_1 tmp_allocstr__SSA__blk_0_1)
                  (= tmp_allocstr__SSA__blk_0_1
                     (select BLOCK_BEGIN tmp_allocstr__SSA__blk_0_1))
                  (> tmp_allocstr__SSA__blk_0_1 0)
                  (= (+ tmp_allocstr__SSA__blk_0_1 __cil_tmp5_allocstr)
                     (select BLOCK_END tmp_allocstr__SSA__blk_0_1))
                  (= VV C16_Ix_0)
                  true)))
    (=> a!2 false)))))
(assert (forall ((VV Int)
         (EREAD Int)
         (__cil_tmp5_allocstr Int)
         (n_allocstr Int)
         (__cil_tmp4_allocstr Int)
         (EWRITE Int)
         (BLOCK_END (Array Int Int))
         (DEREF (Array Int Int))
         (BLOCK_BEGIN (Array Int Int))
         (UNCHECKED (Array Int Int)))
  (let ((a!1 (and (not (>= VV 0))
                  (k_13 EREAD
                        EWRITE
                        n_allocstr
                        n_allocstr
                        BLOCK_END
                        DEREF
                        BLOCK_BEGIN
                        UNCHECKED)
                  (or (and (>= n_allocstr 0)
                           (= __cil_tmp4_allocstr n_allocstr)
                           true)
                      (and (< n_allocstr 0) (> __cil_tmp4_allocstr 0) true)
                      false)
                  (= __cil_tmp5_allocstr __cil_tmp4_allocstr)
                  (= VV __cil_tmp5_allocstr)
                  true)))
    (=> a!1 false))))
(assert (forall ((VV Int)
         (EREAD Int)
         (__cil_tmp5_allocstr Int)
         (n_allocstr Int)
         (lqn_0 Int)
         (__cil_tmp4_allocstr Int)
         (tmp_allocstr__SSA__blk_0_1 Int)
         (s_allocstr__SSA__blk_0_1 Int)
         (EWRITE Int)
         (BLOCK_END (Array Int Int))
         (DEREF (Array Int Int))
         (BLOCK_BEGIN (Array Int Int))
         (UNCHECKED (Array Int Int)))
  (let ((a!1 (or (= (select UNCHECKED VV) 1)
                 (and (<= (select BLOCK_BEGIN VV) VV)
                      (< VV (select BLOCK_END VV))
                      true)
                 false)))
  (let ((a!2 (and (not a!1)
                  (k_13 EREAD
                        EWRITE
                        n_allocstr
                        n_allocstr
                        BLOCK_END
                        DEREF
                        BLOCK_BEGIN
                        UNCHECKED)
                  (or (and (>= n_allocstr 0)
                           (= __cil_tmp4_allocstr n_allocstr)
                           true)
                      (and (< n_allocstr 0) (> __cil_tmp4_allocstr 0) true)
                      false)
                  (= __cil_tmp5_allocstr __cil_tmp4_allocstr)
                  (= lqn_0 0)
                  (= s_allocstr__SSA__blk_0_1 tmp_allocstr__SSA__blk_0_1)
                  (= tmp_allocstr__SSA__blk_0_1
                     (select BLOCK_BEGIN tmp_allocstr__SSA__blk_0_1))
                  (> tmp_allocstr__SSA__blk_0_1 0)
                  (= (+ tmp_allocstr__SSA__blk_0_1 __cil_tmp5_allocstr)
                     (select BLOCK_END tmp_allocstr__SSA__blk_0_1))
                  (< VV (+ s_allocstr__SSA__blk_0_1 1))
                  (<= s_allocstr__SSA__blk_0_1 VV)
                  (= (select UNCHECKED VV)
                     (select UNCHECKED s_allocstr__SSA__blk_0_1))
                  (= (select BLOCK_END VV)
                     (select BLOCK_END s_allocstr__SSA__blk_0_1))
                  (= (select BLOCK_BEGIN VV)
                     (select BLOCK_BEGIN s_allocstr__SSA__blk_0_1))
                  true)))
    (=> a!2 false)))))
(assert (forall ((tmp_main__SSA__blk_0_1 Int)
         (VV Int)
         (n_main__SSA__blk_0_1 Int)
         (EREAD Int)
         (EWRITE Int)
         (BLOCK_END (Array Int Int))
         (DEREF (Array Int Int))
         (BLOCK_BEGIN (Array Int Int))
         (UNCHECKED (Array Int Int)))
  (=> (and (= n_main__SSA__blk_0_1 n_main__SSA__blk_0_1)
           (= VV VV)
           (= EWRITE EWRITE)
           (= EREAD EREAD)
           (= VV n_main__SSA__blk_0_1)
           (>= tmp_main__SSA__blk_0_1 1)
           (= n_main__SSA__blk_0_1 tmp_main__SSA__blk_0_1)
           true)
      (k_13 EREAD
            EWRITE
            VV
            n_main__SSA__blk_0_1
            BLOCK_END
            DEREF
            BLOCK_BEGIN
            UNCHECKED))))
(assert (forall ((tmp_main__SSA__blk_0_1 Int)
         (VV Int)
         (s_main Int)
         (EREAD Int)
         (n_main__SSA__blk_0_1 Int)
         (tmp_main Int)
         (EWRITE Int)
         (n_main Int)
         (BLOCK_END (Array Int Int))
         (DEREF (Array Int Int))
         (BLOCK_BEGIN (Array Int Int))
         (UNCHECKED (Array Int Int)))
  (=> (and (= tmp_main__SSA__blk_0_1 tmp_main__SSA__blk_0_1)
           (= tmp_main tmp_main)
           (= s_main s_main)
           (= n_main__SSA__blk_0_1 n_main__SSA__blk_0_1)
           (= n_main n_main)
           (= VV VV)
           (= EWRITE EWRITE)
           (= EREAD EREAD)
           (k_12 EREAD
                 EWRITE
                 VV
                 n_main__SSA__blk_0_1
                 BLOCK_END
                 DEREF
                 BLOCK_BEGIN
                 UNCHECKED)
           (>= tmp_main__SSA__blk_0_1 1)
           (= n_main__SSA__blk_0_1 tmp_main__SSA__blk_0_1)
           true)
      (k_18 EREAD
            EWRITE
            VV
            n_main
            n_main__SSA__blk_0_1
            s_main
            tmp_main
            tmp_main__SSA__blk_0_1
            BLOCK_END
            DEREF
            BLOCK_BEGIN
            UNCHECKED))))
(assert (forall ((tmp_main__SSA__blk_0_1 Int)
         (VV Int)
         (s_main Int)
         (EREAD Int)
         (__cil_tmp4_main Int)
         (n_main__SSA__blk_0_1 Int)
         (s_main__SSA__blk_0_1 Int)
         (tmp_main Int)
         (EWRITE Int)
         (n_main Int)
         (BLOCK_END (Array Int Int))
         (DEREF (Array Int Int))
         (BLOCK_BEGIN (Array Int Int))
         (UNCHECKED (Array Int Int)))
  (let ((a!1 (not (and (> VV 0)
                       (<= (select BLOCK_BEGIN VV) VV)
                       (< VV (select BLOCK_END VV))
                       true))))
    (=> (and a!1
             (k_18 EREAD
                   EWRITE
                   s_main__SSA__blk_0_1
                   n_main
                   n_main__SSA__blk_0_1
                   s_main
                   tmp_main
                   tmp_main__SSA__blk_0_1
                   BLOCK_END
                   DEREF
                   BLOCK_BEGIN
                   UNCHECKED)
             (= __cil_tmp4_main s_main__SSA__blk_0_1)
             (= n_main__SSA__blk_0_1 tmp_main__SSA__blk_0_1)
             (>= tmp_main__SSA__blk_0_1 1)
             (= VV __cil_tmp4_main)
             true)
        false))))

(check-sat)
